&CONTROL
 calculation = 'scf'
  pseudo_dir = './'
prefix = 'sr2cuo3'
/
&SYSTEM
       ibrav = 0
         nat = 6
        ntyp = 3
     ecutwfc = 30.000000
     ecutrho = 240.000000
 occupations = 'tetrahedra_opt'
/
&ELECTRONS
mixing_beta = 0.3
/
CELL_PARAMETERS angstrom
 -1.749305 1.955690 6.351200
 1.749305 -1.955690 6.351200
 1.749305 1.955690 -6.351200
ATOMIC_SPECIES
 Sr 87.620000 Sr.pbe-spn-rrkjus_psl.1.0.0.UPF
 Cu 63.546000 Cu_pbe_v1.2.uspp.F.UPF
 O 15.999400 O_pbe_v1.2.uspp.F.UPF
ATOMIC_POSITIONS crystal
 Sr 0.851940 0.351940 0.500000
 Sr 0.148060 0.648060 0.500000
 Cu 0.500000 0.000000 0.500000
 O 0.654110 0.154110 0.500000
 O 0.345890 0.845890 0.500000
 O 0.000000 0.000000 0.000000
K_POINTS automatic
 4 4 4 0 0 0
