&BANDS
      prefix = 'sr2vo4'
       lsym = .false.
/
