&BANDS
      prefix = 'sr2cuo3'
       lsym = .false.
/
